\ LP format - for model browsing. Use MPS format to capture full model detail.
Minimize
  0 B24(0) + 0 B25(0) + 0 B26(0) + 0 B27(0) + 0 B28(0) + 0 B29(0) + 0 B31(0)
   + 0 B32(0) + 0 B33(0) + 0 B34(0) + 0 B35(0) + 0 B36(0) + 0 B38(0)
   + 0 B39(0) + 0 B40(0) + 0 B41(0) + 0 B42(0) + 0 B43(0) + 0 B44(0)
   + 0 B45(0) + 0 B46(0) + 0 B47(0) + 0 B48(0) + 0 B49(0) + 0 B50(0)
   + 0 B51(0) + 0 B52(0) + 0 B53(0) + 0 B54(0) + 0 B55(0) + 0 B57(0)
   + 0 B59(0) + 0 B60(0) + 0 B61(0) + 0 B62(0) + 0 B64(0) + 0 B65(0)
   + 0 B66(0) + 0 B68(0) + 0 B70(0) + 0 B71(0) + 0 B72(0) + 0 B73(0)
   + 0 B74(0) + 0 B75(0) + 0 B76(0) + 0 B77(0) + 0 B78(0) + 0 B80(0)
   + 0 B81(0) + 0 B82(0) + 0 B84(0) + 0 B85(0) + 0 B86(0) + 0 B87(0)
   + 0 B88(0) + 0 B90(0) + 0 B91(0) + 0 B92(0) + 0 B93(0) + 0 B95(0)
   + 0 B96(0) + 0 B97(0) + 0 B98(0) + 0 B99(0) + 0 B100(0) + 0 B102(0)
   + 0 B103(0) + 0 B104(0) + 0 B105(0) + 0 B106(0) + 0 B107(0) + 0 B109(0)
   + 0 B110(0) + 0 B111(0) + 0 B113(0) + 0 B114(0) + 0 B115(0) + 0 B117(0)
   + 0 B118(0) + 0 B119(0) + 0 B120(0) + 0 B121(0) + 0 B122(0) + 0 B123(0)
   + 0 B124(0) + 0 B125(0) + 0 B126(0) + 0 B127(0) + 0 B128(0) + 0 B130(0)
   + 0 B131(0) + 0 B132(0) + 0 B133(0) + 0 B135(0) + 0 B136(0) + 0 B137(0)
   + 0 B139(0) + 0 B140(0) + 0 B141(0) + 0 B142(0) + 0 B144(0) + 0 B145(0)
   + 0 B146(0) + 0 B147(0) + 0 B148(0) + 0 B149(0) + 0 B150(0) + 0 B151(0)
   + 0 B152(0) + 0 B153(0) + 0 B154(0) + 0 B155(0) + 0 B157(0) + 0 B158(0)
   + 0 B159(0) + 0 B161(0) + 0 B162(0) + 0 B163(0) + 0 B165(0) + 0 B166(0)
   + 0 B167(0) + 0 B168(0) + 0 B169(0) + 0 B170(0) + 0 B171(0) + 0 B172(0)
   + 0 B173(0) + 0 B174(0) + 0 B175(0) + 0 B176(0) + 0 B177(0) + 0 B178(0)
   + 0 B179(0) + 0 B180(0) + 0 B182(0) + 0 B183(0) + 0 B184(0) + 0 B185(0)
   + 0 B186(0) + 0 B187(0) + 0 B188(0) + 0 B189(0) + 0 B190(0) + 0 B191(0)
   + 0 B192(0) + 0 B193(0) + 0 B194(0) + 0 B195(0) + 0 B196(0) + 0 B197(0)
   + 0 B198(0) + 0 B199(0) + 0 B200(0) + 0 B201(0) + 0 B202(0) + 0 B204(0)
   + 0 B205(0) + 0 B206(0) + 0 B207(0) + 0 B208(0) + 0 B210(0) + 0 B211(0)
   + 0 B212(0) + 0 B213(0) + 0 B215(0) + 0 B216(0) + 0 B217(0) + 0 B218(0)
   + 0 B219(0) + 0 B220(0) + 0 B221(0) + 0 B222(0) + 0 B223(0) + 0 B224(0)
   + 0 B225(0) + 0 B227(0) + 0 B228(0) + 0 B229(0) + 0 B230(0) + 0 B232(0)
   + 0 B233(0) + 0 B234(0) + 0 B236(0) + 0 B238(0) + 0 B239(0) + 0 B240(0)
   + 0 B241(0) + 0 B242(0) + 0 B243(0) + 0 B244(0) + 0 B245(0) + 0 B246(0)
   + 0 B247(0) + 0 B248(0) + 0 B249(0) + 0 B250(0) + 0 B251(0) + 0 B252(0)
   + 0 B253(0) + 0 B255(0) + 0 B256(0) + 0 B257(0) + 0 B259(0) + 0 B260(0)
   + 0 B261(0) + 0 B262(0) + 0 B264(0) + 0 B265(0) + 0 B266(0) + 0 B267(0)
   + 0 B268(0) + 0 B269(0) + 0 B270(0) + 0 B271(0) + 0 B272(0) + 0 B273(0)
   + 0 B274(0) + 0 B275(0) + 0 B276(0) + 0 B277(0) + 0 B278(0) + 0 B280(0)
   + 0 B281(0) + 0 B282(0) + 0 B284(0) + 0 B286(0) + 0 B287(0) + 0 B288(0)
   + 0 B289(0) + 0 B290(0) + 0 B291(0) + 0 B292(0) + 0 B293(0) + 0 B294(0)
   + 0 B295(0) + 0 B296(0) + 0 B297(0) + 0 B298(0) + 0 B299(0) + 0 B300(0)
   + 0 B301(0) + 0 B302(0) + 0 B303(0) + 0 B304(0) + 0 B306(0) + 0 B307(0)
   + 0 B308(0) + 0 B309(0) + 0 B311(0) + 0 B312(0) + 0 B313(0) + 0 B314(0)
   + 0 B315(0) + 0 B316(0) + 0 B317(0) + 0 B318(0) + 0 B319(0) + 0 B320(0)
   + 0 B321(0) + 0 B322(0) + 0 B323(0) + 0 B324(0) + 0 B325(0) + 0 B326(0)
   + 0 B327(0) + 0 B329(0) + 0 B330(0) + 0 B331(0) + 0 B333(0) + 0 B334(0)
   + 0 B335(0) + 0 B336(0) + 0 B337(0) + 0 B338(0) + 0 B339(0) + 0 B340(0)
   + 0 B341(0) + 0 B342(0) + 0 B343(0) + 0 B344(0) + 0 B345(0) + 0 B346(0)
   + 0 B347(0) + 0 B348(0) + 0 B349(0) + 0 B350(0) + 0 B351(0) + 0 B352(0)
   + 0 B353(0) + 0 B354(0) + 0 B355(0) + 0 B356(0) + 0 B357(0) + 0 B358(0)
   + 0 B359(0) + 0 B360(0) + 0 B361(0) + 0 B362(0) + 0 B363(0) + 0 B364(0)
   + 0 B365(0) + 0 B366(0) + 0 B367(0) + 0 B368(0) + 0 B369(0) + 0 B370(0)
   + 0 B371(0) + 0 B372(0) + 0 B373(0) + 0 B374(0) + 0 B375(0) + 0 B376(0)
   + 0 B377(0) + 0 B379(0) + 0 B380(0) + 0 B381(0) + 0 B382(0) + 0 B384(0)
   + 0 B385(0) + 0 B386(0) + 0 B387(0) + 0 B388(0) + 0 B389(0) + 0 B390(0)
   + 0 B391(0) + 0 B392(0) + 0 B393(0) + 0 B394(0) + 0 B395(0) + 0 B396(0)
   + 0 B397(0) + 0 B398(0) + 0 B399(0) + 0 B400(0) + 0 B401(0) + 0 B402(0)
   + 0 B404(0) + 0 B406(0) + 0 B407(0) + 0 B408(0) + 0 B409(0) + 0 B410(0)
   + 0 B411(0) + 0 B412(0) + 0 B413(0) + 0 B414(0) + 0 B415(0) + 0 B416(0)
   + 0 B417(0) + 0 B418(0) + 0 B419(0) + 0 B420(0) + 0 B421(0) + 0 B422(0)
   + 0 B423(0) + 0 B424(0) + 0 B425(0) + 0 B426(0) + 0 B427(0) + 0 B429(0)
   + 0 B430(0) + 0 B431(0) + 0 B432(0) + 0 B433(0) + 0 B434(0) + 0 B435(0)
   + 0 B436(0) + 0 B437(0) + 0 B438(0) + 0 B439(0) + 0 B440(0) + 0 B441(0)
   + 0 B442(0) + 0 B443(0) + 0 B444(0) + 0 B445(0) + 0 B446(0) + 0 B447(0)
   + 0 B448(0) + 0 B449(0) + 0 B450(0) + 0 B451(0) + 0 B452(0) + 0 B453(0)
   + 0 B455(0) + 0 B456(0) + 0 B457(0) + 0 B458(0) + 0 B459(0) + 0 B460(0)
   + 0 B461(0) + 0 B462(0) + 0 B463(0) + 0 B464(0) + 0 B465(0) + 0 B466(0)
   + 0 B467(0) + 0 B468(0) + 0 B469(0) + 0 B470(0) + 0 B471(0) + 0 B472(0)
   + 0 B473(0) + 0 B474(0) + 0 B475(0) + 0 B476(0) + 0 B477(0) + 0 B478(0)
   + 0 B480(0) + 0 B481(0) + 0 B482(0) + 0 B483(0) + 0 B484(0) + 0 B485(0)
   + 0 B486(0) + 0 B487(0) + 0 B488(0) + 0 B489(0) + 0 B490(0) + 0 B491(0)
   + 0 B492(0) + 0 B493(0) + 0 B494(0) + 0 B495(0) + 0 B496(0) + 0 B497(0)
   + 0 B498(0) + 0 B499(0) + 0 B500(0) + 0 B502(0) + 0 B503(0) + 0 B504(0)
   + 0 B505(0) + 0 B506(0) + 0 B507(0) + 0 B508(0) + 0 B509(0) + 0 B510(0)
   + 0 B511(0) + 0 B512(0) + 0 B513(0) + 0 B514(0) + 0 B515(0) + 0 B516(0)
   + 0 B517(0) + 0 B518(0) + 0 B519(0) + 0 B520(0) + 0 B521(0) + 0 B522(0)
   + 0 B523(0) + 0 B524(0) + 0 B525(0) + 0 B526(0) + 0 B527(0) + 0 B528(0)
   + 0 B529(0) + 0 B530(0) + 0 B531(0) + 0 B532(0) + 0 B533(0) + 0 B534(0)
   + 0 B535(0) + 0 B536(0) + 0 B537(0) + 0 B538(0) + 0 B539(0) + 0 B540(0)
   + 0 B541(0) + 0 B542(0) + 0 B543(0) + 0 B544(0) + 0 B545(0) + 0 B546(0)
   + 0 B548(0) + 0 B549(0) + 0 B550(0) + 0 B551(0) + 0 B552(0) + 0 B553(0)
   + 0 B554(0) + 0 B555(0) + 0 B556(0) + 0 B557(0) + 0 B558(0) + 0 B559(0)
   + 0 B560(0) + 0 B561(0) + 0 B562(0) + 0 B563(0) + 0 B564(0) + 0 B565(0)
   + 0 B566(0) + 0 B567(0) + 0 B568(0) + 0 B569(0) + 0 B570(0) + 0 B571(0)
   + 0 B572(0) + 0 B573(0) + 0 B574(0) + 0 B575(0) + 0 B576(0) + 0 B577(0)
   + 0 B578(0) + 0 B579(0) + 0 B580(0) + 0 B581(0) + 0 B582(0) + 0 B583(0)
   + 0 B584(0) + 0 B585(0) + 0 B586(0) + 0 B587(0) + 0 B588(0) + 0 B589(0)
   + 0 B590(0) + 0 B591(0) + 0 B592(0) + 0 B593(0) + 0 B594(0) + 0 B595(0)
   + 0 B596(0) + 0 B597(0) + 0 B598(0) + 0 B599(0) + I624(1)
Subject To
 c0: B0(7) = 1
 c1: B1(13) = 1
 c2: B2(11) = 1
 c3: B3(11) = 1
 c4: B4(12) = 1
 c5: B5(11) = 1
 c6: B6(7) = 1
 c7: B7(11) = 1
 c8: B8(13) = 1
 c9: B9(12) = 1
 c10: B10(13) = 1
 c11: B11(11) = 1
 c12: B12(11) = 1
 c13: B13(7) = 1
 c14: B14(12) = 1
 c15: B15(13) = 1
 c16: B16(11) = 1
 c17: B17(11) = 1
 c18: B18(12) = 1
 c19: B19(15) = 1
 c20: B20(11) = 1
 c21: B21(15) = 1
 c22: B22(11) = 1
 c23: B23(12) = 1
 c24: - 43200 B0(7) + C600(8) <= 0
 c25: - 43200 B1(13) + C601(14) <= 0
 c26: - 43200 B2(11) + C602(12) <= 0
 c27: - 43200 B3(11) + C603(12) <= 0
 c28: - 43200 B4(12) + C604(12) <= 0
 c29: - 43200 B5(11) + C605(12) <= 0
 c30: - 43200 B6(7) + C606(8) <= 0
 c31: - 43200 B7(11) + C607(12) <= 0
 c32: - 43200 B8(13) + C608(14) <= 0
 c33: - 43200 B9(12) + C609(12) <= 0
 c34: - 43200 B10(13) + C610(14) <= 0
 c35: - 43200 B11(11) + C611(12) <= 0
 c36: - 43200 B12(11) + C612(12) <= 0
 c37: - 43200 B13(7) + C613(8) <= 0
 c38: - 43200 B14(12) + C614(12) <= 0
 c39: - 43200 B15(13) + C615(14) <= 0
 c40: - 43200 B16(11) + C616(12) <= 0
 c41: - 43200 B17(11) + C617(12) <= 0
 c42: - 43200 B18(12) + C618(12) <= 0
 c43: - 43200 B19(15) + C619(16) <= 0
 c44: - 43200 B20(11) + C620(12) <= 0
 c45: - 43200 B21(15) + C621(16) <= 0
 c46: - 43200 B22(11) + C622(12) <= 0
 c47: - 43200 B23(12) + C623(12) <= 0
 c48: - 43200 B0(7) - 43200 B6(7) - 43200 B30(2) + C600(8) - C606(8)
   >= -128041
 c49: - 43200 B0(7) - 43200 B6(7) + 43200 B30(2) - C600(8) + C606(8)
   >= -84821
 c50: - 43200 B0(7) - 43200 B13(7) - 43200 B37(2) + C600(8) - C613(8)
   >= -126621
 c51: - 43200 B0(7) - 43200 B13(7) + 43200 B37(2) - C600(8) + C613(8)
   >= -84940
 c52: - 43200 B1(13) - 43200 B8(13) - 43200 B56(2) + C601(14) - C608(14)
   >= -127981
 c53: - 43200 B1(13) - 43200 B8(13) + 43200 B56(2) - C601(14) + C608(14)
   >= -84781
 c54: - 43200 B1(13) - 43200 B10(13) - 43200 B58(2) + C601(14) - C610(14)
   >= -128080
 c55: - 43200 B1(13) - 43200 B10(13) + 43200 B58(2) - C601(14) + C610(14)
   >= -84801
 c56: - 43200 B1(13) - 43200 B15(13) - 43200 B63(2) + C601(14) - C615(14)
   >= -126522
 c57: - 43200 B1(13) - 43200 B15(13) + 43200 B63(2) - C601(14) + C615(14)
   >= -84821
 c58: - 43200 B1(13) - 43200 B19(15) - 43200 B67(2) + C601(14) - C619(16)
   >= -128100
 c59: - 43200 B1(13) - 43200 B19(15) + 43200 B67(2) - C601(14) + C619(16)
   >= -84861
 c60: - 43200 B1(13) - 43200 B21(15) - 43200 B69(2) + C601(14) - C621(16)
   >= -127962
 c61: - 43200 B1(13) - 43200 B21(15) + 43200 B69(2) - C601(14) + C621(16)
   >= -84801
 c62: - 43200 B2(11) - 43200 B7(11) - 43200 B79(2) + C602(12) - C607(12)
   >= -127962
 c63: - 43200 B2(11) - 43200 B7(11) + 43200 B79(2) - C602(12) + C607(12)
   >= -83322
 c64: - 43200 B2(11) - 43200 B11(11) - 43200 B83(2) + C602(12) - C611(12)
   >= -128080
 c65: - 43200 B2(11) - 43200 B11(11) + 43200 B83(2) - C602(12) + C611(12)
   >= -83440
 c66: - 43200 B2(11) - 43200 B17(11) - 43200 B89(2) + C602(12) - C617(12)
   >= -126621
 c67: - 43200 B2(11) - 43200 B17(11) + 43200 B89(2) - C602(12) + C617(12)
   >= -83341
 c68: - 43200 B2(11) - 43200 B22(11) - 43200 B94(2) + C602(12) - C622(12)
   >= -128041
 c69: - 43200 B2(11) - 43200 B22(11) + 43200 B94(2) - C602(12) + C622(12)
   >= -83460
 c70: - 43200 B3(11) - 43200 B5(11) - 43200 B101(2) + C603(12) - C605(12)
   >= -128120
 c71: - 43200 B3(11) - 43200 B5(11) + 43200 B101(2) - C603(12) + C605(12)
   >= -83460
 c72: - 43200 B3(11) - 43200 B12(11) - 43200 B108(2) + C603(12) - C612(12)
   >= -125240
 c73: - 43200 B3(11) - 43200 B12(11) + 43200 B108(2) - C603(12) + C612(12)
   >= -83480
 c74: - 43200 B3(11) - 43200 B16(11) - 43200 B112(2) + C603(12) - C616(12)
   >= -126522
 c75: - 43200 B3(11) - 43200 B16(11) + 43200 B112(2) - C603(12) + C616(12)
   >= -83322
 c76: - 43200 B3(11) - 43200 B20(11) - 43200 B116(2) + C603(12) - C620(12)
   >= -127981
 c77: - 43200 B3(11) - 43200 B20(11) + 43200 B116(2) - C603(12) + C620(12)
   >= -83421
 c78: - 43200 B4(12) - 43200 B9(12) - 43200 B129(2) + C604(12) - C609(12)
   >= -128021
 c79: - 43200 B4(12) - 43200 B9(12) + 43200 B129(2) - C604(12) + C609(12)
   >= -84762
 c80: - 43200 B4(12) - 43200 B14(12) - 43200 B134(2) + C604(12) - C614(12)
   >= -128120
 c81: - 43200 B4(12) - 43200 B14(12) + 43200 B134(2) - C604(12) + C614(12)
   >= -84900
 c82: - 43200 B4(12) - 43200 B18(12) - 43200 B138(2) + C604(12) - C618(12)
   >= -127962
 c83: - 43200 B4(12) - 43200 B18(12) + 43200 B138(2) - C604(12) + C618(12)
   >= -84861
 c84: - 43200 B4(12) - 43200 B23(12) - 43200 B143(2) + C604(12) - C623(12)
   >= -126561
 c85: - 43200 B4(12) - 43200 B23(12) + 43200 B143(2) - C604(12) + C623(12)
   >= -84920
 c86: - 43200 B5(11) - 43200 B12(11) - 43200 B156(2) + C605(12) - C612(12)
   >= -125161
 c87: - 43200 B5(11) - 43200 B12(11) + 43200 B156(2) - C605(12) + C612(12)
   >= -84801
 c88: - 43200 B5(11) - 43200 B16(11) - 43200 B160(2) + C605(12) - C616(12)
   >= -126581
 c89: - 43200 B5(11) - 43200 B16(11) + 43200 B160(2) - C605(12) + C616(12)
   >= -84781
 c90: - 43200 B5(11) - 43200 B20(11) - 43200 B164(2) + C605(12) - C620(12)
   >= -128061
 c91: - 43200 B5(11) - 43200 B20(11) + 43200 B164(2) - C605(12) + C620(12)
   >= -84920
 c92: - 43200 B6(7) - 43200 B13(7) - 43200 B181(2) + C606(8) - C613(8)
   >= -126541
 c93: - 43200 B6(7) - 43200 B13(7) + 43200 B181(2) - C606(8) + C613(8)
   >= -84841
 c94: - 43200 B7(11) - 43200 B11(11) - 43200 B203(2) + C607(12) - C611(12)
   >= -128100
 c95: - 43200 B7(11) - 43200 B11(11) + 43200 B203(2) - C607(12) + C611(12)
   >= -84781
 c96: - 43200 B7(11) - 43200 B17(11) - 43200 B209(2) + C607(12) - C617(12)
   >= -126660
 c97: - 43200 B7(11) - 43200 B17(11) + 43200 B209(2) - C607(12) + C617(12)
   >= -84801
 c98: - 43200 B7(11) - 43200 B22(11) - 43200 B214(2) + C607(12) - C622(12)
   >= -128120
 c99: - 43200 B7(11) - 43200 B22(11) + 43200 B214(2) - C607(12) + C622(12)
   >= -84801
 c100: - 43200 B8(13) - 43200 B10(13) - 43200 B226(2) + C608(14) - C610(14)
   >= -128041
 c101: - 43200 B8(13) - 43200 B10(13) + 43200 B226(2) - C608(14) + C610(14)
   >= -84940
 c102: - 43200 B8(13) - 43200 B15(13) - 43200 B231(2) + C608(14) - C615(14)
   >= -126541
 c103: - 43200 B8(13) - 43200 B15(13) + 43200 B231(2) - C608(14) + C615(14)
   >= -84781
 c104: - 43200 B8(13) - 43200 B19(15) - 43200 B235(2) + C608(14) - C619(16)
   >= -128100
 c105: - 43200 B8(13) - 43200 B19(15) + 43200 B235(2) - C608(14) + C619(16)
   >= -84940
 c106: - 43200 B8(13) - 43200 B21(15) - 43200 B237(2) + C608(14) - C621(16)
   >= -128021
 c107: - 43200 B8(13) - 43200 B21(15) + 43200 B237(2) - C608(14) + C621(16)
   >= -84920
 c108: - 43200 B9(12) - 43200 B14(12) - 43200 B254(2) + C609(12) - C614(12)
   >= -127981
 c109: - 43200 B9(12) - 43200 B14(12) + 43200 B254(2) - C609(12) + C614(12)
   >= -84762
 c110: - 43200 B9(12) - 43200 B18(12) - 43200 B258(2) + C609(12) - C618(12)
   >= -128061
 c111: - 43200 B9(12) - 43200 B18(12) + 43200 B258(2) - C609(12) + C618(12)
   >= -84801
 c112: - 43200 B9(12) - 43200 B23(12) - 43200 B263(2) + C609(12) - C623(12)
   >= -126522
 c113: - 43200 B9(12) - 43200 B23(12) + 43200 B263(2) - C609(12) + C623(12)
   >= -84841
 c114: - 43200 B10(13) - 43200 B15(13) - 43200 B279(2) + C610(14)
   - C615(14) >= -126522
 c115: - 43200 B10(13) - 43200 B15(13) + 43200 B279(2) - C610(14)
   + C615(14) >= -84880
 c116: - 43200 B10(13) - 43200 B19(15) - 43200 B283(2) + C610(14)
   - C619(16) >= -128140
 c117: - 43200 B10(13) - 43200 B19(15) + 43200 B283(2) - C610(14)
   + C619(16) >= -84762
 c118: - 43200 B10(13) - 43200 B21(15) - 43200 B285(2) + C610(14)
   - C621(16) >= -127962
 c119: - 43200 B10(13) - 43200 B21(15) + 43200 B285(2) - C610(14)
   + C621(16) >= -84880
 c120: - 43200 B11(11) - 43200 B17(11) - 43200 B305(2) + C611(12)
   - C617(12) >= -126640
 c121: - 43200 B11(11) - 43200 B17(11) + 43200 B305(2) - C611(12)
   + C617(12) >= -84801
 c122: - 43200 B11(11) - 43200 B22(11) - 43200 B310(2) + C611(12)
   - C622(12) >= -128041
 c123: - 43200 B11(11) - 43200 B22(11) + 43200 B310(2) - C611(12)
   + C622(12) >= -84920
 c124: - 43200 B12(11) - 43200 B16(11) - 43200 B328(2) + C612(12)
   - C616(12) >= -126601
 c125: - 43200 B12(11) - 43200 B16(11) + 43200 B328(2) - C612(12)
   + C616(12) >= -81921
 c126: - 43200 B12(11) - 43200 B20(11) - 43200 B332(2) + C612(12)
   - C620(12) >= -127981
 c127: - 43200 B12(11) - 43200 B20(11) + 43200 B332(2) - C612(12)
   + C620(12) >= -82040
 c128: - 43200 B14(12) - 43200 B18(12) - 43200 B378(2) + C614(12)
   - C618(12) >= -128001
 c129: - 43200 B14(12) - 43200 B18(12) + 43200 B378(2) - C614(12)
   + C618(12) >= -84781
 c130: - 43200 B14(12) - 43200 B23(12) - 43200 B383(2) + C614(12)
   - C623(12) >= -126601
 c131: - 43200 B14(12) - 43200 B23(12) + 43200 B383(2) - C614(12)
   + C623(12) >= -84880
 c132: - 43200 B15(13) - 43200 B19(15) - 43200 B403(2) + C615(14)
   - C619(16) >= -128120
 c133: - 43200 B15(13) - 43200 B19(15) + 43200 B403(2) - C615(14)
   + C619(16) >= -83361
 c134: - 43200 B15(13) - 43200 B21(15) - 43200 B405(2) + C615(14)
   - C621(16) >= -128061
 c135: - 43200 B15(13) - 43200 B21(15) + 43200 B405(2) - C615(14)
   + C621(16) >= -83480
 c136: - 43200 B16(11) - 43200 B20(11) - 43200 B428(2) + C616(12)
   - C620(12) >= -128080
 c137: - 43200 B16(11) - 43200 B20(11) + 43200 B428(2) - C616(12)
   + C620(12) >= -83440
 c138: - 43200 B17(11) - 43200 B22(11) - 43200 B454(2) + C617(12)
   - C622(12) >= -127962
 c139: - 43200 B17(11) - 43200 B22(11) + 43200 B454(2) - C617(12)
   + C622(12) >= -83500
 c140: - 43200 B18(12) - 43200 B23(12) - 43200 B479(2) + C618(12)
   - C623(12) >= -126640
 c141: - 43200 B18(12) - 43200 B23(12) + 43200 B479(2) - C618(12)
   + C623(12) >= -84920
 c142: - 43200 B19(15) - 43200 B21(15) - 43200 B501(2) + C619(16)
   - C621(16) >= -128001
 c143: - 43200 B19(15) - 43200 B21(15) + 43200 B501(2) - C619(16)
   + C621(16) >= -84821
 c144: - 43200 B19(15) - 43200 B21(15) - 43200 B547(2) - C619(16)
   + C621(16) >= -128021
 c145: - 43200 B19(15) - 43200 B21(15) + 43200 B547(2) + C619(16)
   - C621(16) >= -84801
 c146: C600(8) >= 0
 c147: C601(14) >= 0
 c148: C602(12) >= 0
 c149: C603(12) >= 0
 c150: C604(12) >= 0
 c151: - 480 B4(12) + C604(12) >= 0
 c152: C605(12) >= 0
 c153: C606(8) >= 0
 c154: C607(12) >= 0
 c155: C608(14) >= 0
 c156: C609(12) >= 0
 c157: - 480 B9(12) + C609(12) >= 0
 c158: C610(14) >= 0
 c159: C611(12) >= 0
 c160: C612(12) >= 0
 c161: C613(8) >= 0
 c162: C614(12) >= 0
 c163: - 960 B14(12) + C614(12) >= 0
 c164: C615(14) >= 0
 c165: C616(12) >= 0
 c166: C617(12) >= 0
 c167: C618(12) >= 0
 c168: - 960 B18(12) + C618(12) >= 0
 c169: C619(16) >= 0
 c170: C620(12) >= 0
 c171: C621(16) >= 0
 c172: C622(12) >= 0
 c173: C623(12) >= 0
 c174: - 480 B23(12) + C623(12) >= 0
 c175: - 1440 B1(13) + C600(8) - C601(14) >= 0
 c176: - 2880 B2(11) + C601(14) - C602(12) >= 0
 c177: - 2880 B3(11) + C602(12) - C603(12) >= 0
 c178: - 1440 B4(12) + C603(12) - C604(12) >= 0
 c179: - 1440 B6(7) + C605(12) - C606(8) >= 0
 c180: - 1440 B7(11) + C606(8) - C607(12) >= 0
 c181: - 1440 B8(13) + C607(12) - C608(14) >= 0
 c182: - 1440 B9(12) + C608(14) - C609(12) >= 0
 c183: - 1440 B11(11) + C610(14) - C611(12) >= 0
 c184: - 4320 B12(11) + C611(12) - C612(12) >= 0
 c185: - 2880 B13(7) + C612(12) - C613(8) >= 0
 c186: - 1440 B14(12) + C613(8) - C614(12) >= 0
 c187: - 2880 B16(11) + C615(14) - C616(12) >= 0
 c188: - 2880 B17(11) + C616(12) - C617(12) >= 0
 c189: - 1440 B18(12) + C617(12) - C618(12) >= 0
 c190: - 1440 B20(11) + C619(16) - C620(12) >= 0
 c191: - 1440 B21(15) + C620(12) - C621(16) >= 0
 c192: - 1440 B22(11) + C621(16) - C622(12) >= 0
 c193: - 2880 B23(12) + C622(12) - C623(12) >= 0
 c194: - 1440 B0(7) - 1440 B5(11) - 1440 B10(13) - 2880 B15(13)
   - 1440 B19(15) - C600(8) - C605(12) - C610(14) - C615(14) - C619(16)
   + I624(1) >= 0
Bounds
Binaries
 B0(7) B1(13) B2(11) B3(11) B4(12) B5(11) B6(7) B7(11) B8(13) B9(12)
 B10(13) B11(11) B12(11) B13(7) B14(12) B15(13) B16(11) B17(11) B18(12)
 B19(15) B20(11) B21(15) B22(11) B23(12) B24(0) B25(0) B26(0) B27(0) B28(0)
 B29(0) B30(2) B31(0) B32(0) B33(0) B34(0) B35(0) B36(0) B37(2) B38(0)
 B39(0) B40(0) B41(0) B42(0) B43(0) B44(0) B45(0) B46(0) B47(0) B48(0)
 B49(0) B50(0) B51(0) B52(0) B53(0) B54(0) B55(0) B56(2) B57(0) B58(2)
 B59(0) B60(0) B61(0) B62(0) B63(2) B64(0) B65(0) B66(0) B67(2) B68(0)
 B69(2) B70(0) B71(0) B72(0) B73(0) B74(0) B75(0) B76(0) B77(0) B78(0)
 B79(2) B80(0) B81(0) B82(0) B83(2) B84(0) B85(0) B86(0) B87(0) B88(0)
 B89(2) B90(0) B91(0) B92(0) B93(0) B94(2) B95(0) B96(0) B97(0) B98(0)
 B99(0) B100(0) B101(2) B102(0) B103(0) B104(0) B105(0) B106(0) B107(0)
 B108(2) B109(0) B110(0) B111(0) B112(2) B113(0) B114(0) B115(0) B116(2)
 B117(0) B118(0) B119(0) B120(0) B121(0) B122(0) B123(0) B124(0) B125(0)
 B126(0) B127(0) B128(0) B129(2) B130(0) B131(0) B132(0) B133(0) B134(2)
 B135(0) B136(0) B137(0) B138(2) B139(0) B140(0) B141(0) B142(0) B143(2)
 B144(0) B145(0) B146(0) B147(0) B148(0) B149(0) B150(0) B151(0) B152(0)
 B153(0) B154(0) B155(0) B156(2) B157(0) B158(0) B159(0) B160(2) B161(0)
 B162(0) B163(0) B164(2) B165(0) B166(0) B167(0) B168(0) B169(0) B170(0)
 B171(0) B172(0) B173(0) B174(0) B175(0) B176(0) B177(0) B178(0) B179(0)
 B180(0) B181(2) B182(0) B183(0) B184(0) B185(0) B186(0) B187(0) B188(0)
 B189(0) B190(0) B191(0) B192(0) B193(0) B194(0) B195(0) B196(0) B197(0)
 B198(0) B199(0) B200(0) B201(0) B202(0) B203(2) B204(0) B205(0) B206(0)
 B207(0) B208(0) B209(2) B210(0) B211(0) B212(0) B213(0) B214(2) B215(0)
 B216(0) B217(0) B218(0) B219(0) B220(0) B221(0) B222(0) B223(0) B224(0)
 B225(0) B226(2) B227(0) B228(0) B229(0) B230(0) B231(2) B232(0) B233(0)
 B234(0) B235(2) B236(0) B237(2) B238(0) B239(0) B240(0) B241(0) B242(0)
 B243(0) B244(0) B245(0) B246(0) B247(0) B248(0) B249(0) B250(0) B251(0)
 B252(0) B253(0) B254(2) B255(0) B256(0) B257(0) B258(2) B259(0) B260(0)
 B261(0) B262(0) B263(2) B264(0) B265(0) B266(0) B267(0) B268(0) B269(0)
 B270(0) B271(0) B272(0) B273(0) B274(0) B275(0) B276(0) B277(0) B278(0)
 B279(2) B280(0) B281(0) B282(0) B283(2) B284(0) B285(2) B286(0) B287(0)
 B288(0) B289(0) B290(0) B291(0) B292(0) B293(0) B294(0) B295(0) B296(0)
 B297(0) B298(0) B299(0) B300(0) B301(0) B302(0) B303(0) B304(0) B305(2)
 B306(0) B307(0) B308(0) B309(0) B310(2) B311(0) B312(0) B313(0) B314(0)
 B315(0) B316(0) B317(0) B318(0) B319(0) B320(0) B321(0) B322(0) B323(0)
 B324(0) B325(0) B326(0) B327(0) B328(2) B329(0) B330(0) B331(0) B332(2)
 B333(0) B334(0) B335(0) B336(0) B337(0) B338(0) B339(0) B340(0) B341(0)
 B342(0) B343(0) B344(0) B345(0) B346(0) B347(0) B348(0) B349(0) B350(0)
 B351(0) B352(0) B353(0) B354(0) B355(0) B356(0) B357(0) B358(0) B359(0)
 B360(0) B361(0) B362(0) B363(0) B364(0) B365(0) B366(0) B367(0) B368(0)
 B369(0) B370(0) B371(0) B372(0) B373(0) B374(0) B375(0) B376(0) B377(0)
 B378(2) B379(0) B380(0) B381(0) B382(0) B383(2) B384(0) B385(0) B386(0)
 B387(0) B388(0) B389(0) B390(0) B391(0) B392(0) B393(0) B394(0) B395(0)
 B396(0) B397(0) B398(0) B399(0) B400(0) B401(0) B402(0) B403(2) B404(0)
 B405(2) B406(0) B407(0) B408(0) B409(0) B410(0) B411(0) B412(0) B413(0)
 B414(0) B415(0) B416(0) B417(0) B418(0) B419(0) B420(0) B421(0) B422(0)
 B423(0) B424(0) B425(0) B426(0) B427(0) B428(2) B429(0) B430(0) B431(0)
 B432(0) B433(0) B434(0) B435(0) B436(0) B437(0) B438(0) B439(0) B440(0)
 B441(0) B442(0) B443(0) B444(0) B445(0) B446(0) B447(0) B448(0) B449(0)
 B450(0) B451(0) B452(0) B453(0) B454(2) B455(0) B456(0) B457(0) B458(0)
 B459(0) B460(0) B461(0) B462(0) B463(0) B464(0) B465(0) B466(0) B467(0)
 B468(0) B469(0) B470(0) B471(0) B472(0) B473(0) B474(0) B475(0) B476(0)
 B477(0) B478(0) B479(2) B480(0) B481(0) B482(0) B483(0) B484(0) B485(0)
 B486(0) B487(0) B488(0) B489(0) B490(0) B491(0) B492(0) B493(0) B494(0)
 B495(0) B496(0) B497(0) B498(0) B499(0) B500(0) B501(2) B502(0) B503(0)
 B504(0) B505(0) B506(0) B507(0) B508(0) B509(0) B510(0) B511(0) B512(0)
 B513(0) B514(0) B515(0) B516(0) B517(0) B518(0) B519(0) B520(0) B521(0)
 B522(0) B523(0) B524(0) B525(0) B526(0) B527(0) B528(0) B529(0) B530(0)
 B531(0) B532(0) B533(0) B534(0) B535(0) B536(0) B537(0) B538(0) B539(0)
 B540(0) B541(0) B542(0) B543(0) B544(0) B545(0) B546(0) B547(2) B548(0)
 B549(0) B550(0) B551(0) B552(0) B553(0) B554(0) B555(0) B556(0) B557(0)
 B558(0) B559(0) B560(0) B561(0) B562(0) B563(0) B564(0) B565(0) B566(0)
 B567(0) B568(0) B569(0) B570(0) B571(0) B572(0) B573(0) B574(0) B575(0)
 B576(0) B577(0) B578(0) B579(0) B580(0) B581(0) B582(0) B583(0) B584(0)
 B585(0) B586(0) B587(0) B588(0) B589(0) B590(0) B591(0) B592(0) B593(0)
 B594(0) B595(0) B596(0) B597(0) B598(0) B599(0)
Generals
 I624(1)
End
